
Gurobi 11.0.1 (win64) logging started Thu Apr 25 20:22:04 2024

Set parameter LogFile to value "gurobi.log"
Set parameter MIPGap to value 0.01
Set parameter TimeLimit to value 1200
Set parameter MIPFocus to value 1
Set parameter IntFeasTol to value 1e-06

Gurobi 11.0.1 (win64) logging started Thu Apr 25 22:23:40 2024

Set parameter LogFile to value "gurobi.log"
Set parameter MIPGap to value 0.01
Set parameter TimeLimit to value 1200
Set parameter MIPFocus to value 1
Set parameter IntFeasTol to value 1e-06

Gurobi 11.0.1 (win64) logging started Thu Apr 25 22:23:54 2024

Set parameter LogFile to value "gurobi.log"
Set parameter MIPGap to value 0.01
Set parameter TimeLimit to value 1200
Set parameter MIPFocus to value 1
Set parameter IntFeasTol to value 1e-06
Gurobi Optimizer version 11.0.1 build v11.0.1rc0 (win64 - Windows 11.0 (22631.2))

CPU model: Intel(R) Core(TM) i5-10300H CPU @ 2.50GHz, instruction set [SSE2|AVX|AVX2]
Thread count: 4 physical cores, 8 logical processors, using up to 8 threads

Optimize a model with 544 rows, 171 columns and 252 nonzeros
Model fingerprint: 0x15aa5746
Model has 112 general constraints
Variable types: 17 continuous, 154 integer (98 binary)
Coefficient statistics:
  Matrix range     [1e+00, 2e+02]
  Objective range  [1e+00, 1e+00]
  Bounds range     [1e+00, 1e+00]
  RHS range        [1e+00, 4e+02]
Presolve time: 0.00s

Explored 0 nodes (0 simplex iterations) in 0.01 seconds (0.00 work units)
Thread count was 1 (of 8 available processors)

Solution count 0

Model is infeasible
Best objective -, best bound -, gap -

Gurobi 11.0.1 (win64) logging started Thu Apr 25 22:24:00 2024

Set parameter LogFile to value "gurobi.log"
Set parameter MIPGap to value 0.01
Set parameter TimeLimit to value 1200
Set parameter MIPFocus to value 1
Set parameter IntFeasTol to value 1e-06
Gurobi Optimizer version 11.0.1 build v11.0.1rc0 (win64 - Windows 11.0 (22631.2))

CPU model: Intel(R) Core(TM) i5-10300H CPU @ 2.50GHz, instruction set [SSE2|AVX|AVX2]
Thread count: 4 physical cores, 8 logical processors, using up to 8 threads

Optimize a model with 544 rows, 171 columns and 252 nonzeros
Model fingerprint: 0xf3dd8150
Model has 112 general constraints
Variable types: 17 continuous, 154 integer (98 binary)
Coefficient statistics:
  Matrix range     [1e+00, 2e+02]
  Objective range  [1e+00, 1e+00]
  Bounds range     [1e+00, 1e+00]
  RHS range        [1e+00, 3e+02]
Presolve time: 0.00s

Explored 0 nodes (0 simplex iterations) in 0.00 seconds (0.00 work units)
Thread count was 1 (of 8 available processors)

Solution count 0

Model is infeasible
Best objective -, best bound -, gap -

Gurobi 11.0.1 (win64) logging started Thu Apr 25 22:24:04 2024

Set parameter LogFile to value "gurobi.log"
Set parameter MIPGap to value 0.01
Set parameter TimeLimit to value 1200
Set parameter MIPFocus to value 1
Set parameter IntFeasTol to value 1e-06
Gurobi Optimizer version 11.0.1 build v11.0.1rc0 (win64 - Windows 11.0 (22631.2))

CPU model: Intel(R) Core(TM) i5-10300H CPU @ 2.50GHz, instruction set [SSE2|AVX|AVX2]
Thread count: 4 physical cores, 8 logical processors, using up to 8 threads

Optimize a model with 544 rows, 171 columns and 252 nonzeros
Model fingerprint: 0xb5e75979
Model has 112 general constraints
Variable types: 17 continuous, 154 integer (98 binary)
Coefficient statistics:
  Matrix range     [1e+00, 2e+02]
  Objective range  [1e+00, 1e+00]
  Bounds range     [1e+00, 1e+00]
  RHS range        [1e+00, 4e+02]
Presolve time: 0.00s

Explored 0 nodes (0 simplex iterations) in 0.00 seconds (0.00 work units)
Thread count was 1 (of 8 available processors)

Solution count 0

Model is infeasible
Best objective -, best bound -, gap -

Gurobi 11.0.1 (win64) logging started Thu Apr 25 22:24:07 2024

Set parameter LogFile to value "gurobi.log"
Set parameter MIPGap to value 0.01
Set parameter TimeLimit to value 1200
Set parameter MIPFocus to value 1
Set parameter IntFeasTol to value 1e-06
Gurobi Optimizer version 11.0.1 build v11.0.1rc0 (win64 - Windows 11.0 (22631.2))

CPU model: Intel(R) Core(TM) i5-10300H CPU @ 2.50GHz, instruction set [SSE2|AVX|AVX2]
Thread count: 4 physical cores, 8 logical processors, using up to 8 threads

Optimize a model with 544 rows, 171 columns and 252 nonzeros
Model fingerprint: 0x5ccd65db
Model has 112 general constraints
Variable types: 17 continuous, 154 integer (98 binary)
Coefficient statistics:
  Matrix range     [1e+00, 2e+02]
  Objective range  [1e+00, 1e+00]
  Bounds range     [1e+00, 1e+00]
  RHS range        [1e+00, 4e+02]
Presolve time: 0.00s

Explored 0 nodes (0 simplex iterations) in 0.00 seconds (0.00 work units)
Thread count was 1 (of 8 available processors)

Solution count 0

Model is infeasible
Best objective -, best bound -, gap -

Gurobi 11.0.1 (win64) logging started Thu Apr 25 22:24:10 2024

Set parameter LogFile to value "gurobi.log"
Set parameter MIPGap to value 0.01
Set parameter TimeLimit to value 1200
Set parameter MIPFocus to value 1
Set parameter IntFeasTol to value 1e-06
Gurobi Optimizer version 11.0.1 build v11.0.1rc0 (win64 - Windows 11.0 (22631.2))

CPU model: Intel(R) Core(TM) i5-10300H CPU @ 2.50GHz, instruction set [SSE2|AVX|AVX2]
Thread count: 4 physical cores, 8 logical processors, using up to 8 threads

Optimize a model with 544 rows, 171 columns and 252 nonzeros
Model fingerprint: 0x4e5f93a7
Model has 112 general constraints
Variable types: 17 continuous, 154 integer (98 binary)
Coefficient statistics:
  Matrix range     [1e+00, 2e+02]
  Objective range  [1e+00, 1e+00]
  Bounds range     [1e+00, 1e+00]
  RHS range        [1e+00, 4e+02]
Presolve time: 0.00s

Explored 0 nodes (0 simplex iterations) in 0.00 seconds (0.00 work units)
Thread count was 1 (of 8 available processors)

Solution count 0

Model is infeasible
Best objective -, best bound -, gap -

Gurobi 11.0.1 (win64) logging started Thu Apr 25 22:24:13 2024

Set parameter LogFile to value "gurobi.log"
Set parameter MIPGap to value 0.01
Set parameter TimeLimit to value 1200
Set parameter MIPFocus to value 1
Set parameter IntFeasTol to value 1e-06
Gurobi Optimizer version 11.0.1 build v11.0.1rc0 (win64 - Windows 11.0 (22631.2))

CPU model: Intel(R) Core(TM) i5-10300H CPU @ 2.50GHz, instruction set [SSE2|AVX|AVX2]
Thread count: 4 physical cores, 8 logical processors, using up to 8 threads

Optimize a model with 544 rows, 171 columns and 252 nonzeros
Model fingerprint: 0x136d13dd
Model has 112 general constraints
Variable types: 17 continuous, 154 integer (98 binary)
Coefficient statistics:
  Matrix range     [1e+00, 2e+02]
  Objective range  [1e+00, 1e+00]
  Bounds range     [1e+00, 1e+00]
  RHS range        [1e+00, 4e+02]
Presolve time: 0.00s

Explored 0 nodes (0 simplex iterations) in 0.00 seconds (0.00 work units)
Thread count was 1 (of 8 available processors)

Solution count 0

Model is infeasible
Best objective -, best bound -, gap -

Gurobi 11.0.1 (win64) logging started Thu Apr 25 22:24:38 2024

Set parameter LogFile to value "gurobi.log"
Set parameter MIPGap to value 0.01
Set parameter TimeLimit to value 1200
Set parameter MIPFocus to value 1
Set parameter IntFeasTol to value 1e-06
Gurobi Optimizer version 11.0.1 build v11.0.1rc0 (win64 - Windows 11.0 (22631.2))

CPU model: Intel(R) Core(TM) i5-10300H CPU @ 2.50GHz, instruction set [SSE2|AVX|AVX2]
Thread count: 4 physical cores, 8 logical processors, using up to 8 threads

Optimize a model with 284 rows, 107 columns and 216 nonzeros
Model fingerprint: 0x6a4495fe
Variable types: 17 continuous, 90 integer (34 binary)
Coefficient statistics:
  Matrix range     [1e+00, 2e+02]
  Objective range  [1e+00, 1e+00]
  Bounds range     [1e+00, 1e+00]
  RHS range        [1e+00, 4e+02]
Presolve time: 0.00s

Explored 0 nodes (0 simplex iterations) in 0.00 seconds (0.00 work units)
Thread count was 1 (of 8 available processors)

Solution count 0

Model is infeasible
Best objective -, best bound -, gap -

Gurobi 11.0.1 (win64) logging started Thu Apr 25 22:24:40 2024

Set parameter LogFile to value "gurobi.log"
Set parameter MIPGap to value 0.01
Set parameter TimeLimit to value 1200
Set parameter MIPFocus to value 1
Set parameter IntFeasTol to value 1e-06
Gurobi Optimizer version 11.0.1 build v11.0.1rc0 (win64 - Windows 11.0 (22631.2))

CPU model: Intel(R) Core(TM) i5-10300H CPU @ 2.50GHz, instruction set [SSE2|AVX|AVX2]
Thread count: 4 physical cores, 8 logical processors, using up to 8 threads

Optimize a model with 284 rows, 107 columns and 216 nonzeros
Model fingerprint: 0x322effdb
Variable types: 17 continuous, 90 integer (34 binary)
Coefficient statistics:
  Matrix range     [1e+00, 2e+02]
  Objective range  [1e+00, 1e+00]
  Bounds range     [1e+00, 1e+00]
  RHS range        [1e+00, 4e+02]
Presolve time: 0.00s

Explored 0 nodes (0 simplex iterations) in 0.00 seconds (0.00 work units)
Thread count was 1 (of 8 available processors)

Solution count 0

Model is infeasible
Best objective -, best bound -, gap -

Gurobi 11.0.1 (win64) logging started Thu Apr 25 22:25:29 2024

Set parameter LogFile to value "gurobi.log"
Set parameter MIPGap to value 0.01
Set parameter TimeLimit to value 1200
Set parameter MIPFocus to value 1
Set parameter IntFeasTol to value 1e-06
Gurobi Optimizer version 11.0.1 build v11.0.1rc0 (win64 - Windows 11.0 (22631.2))

CPU model: Intel(R) Core(TM) i5-10300H CPU @ 2.50GHz, instruction set [SSE2|AVX|AVX2]
Thread count: 4 physical cores, 8 logical processors, using up to 8 threads

Optimize a model with 320 rows, 171 columns and 252 nonzeros
Model fingerprint: 0x282d94db
Model has 112 general constraints
Variable types: 17 continuous, 154 integer (98 binary)
Coefficient statistics:
  Matrix range     [1e+00, 2e+02]
  Objective range  [1e+00, 1e+00]
  Bounds range     [1e+00, 1e+00]
  RHS range        [1e+00, 4e+02]
Presolve time: 0.00s

Explored 0 nodes (0 simplex iterations) in 0.00 seconds (0.00 work units)
Thread count was 1 (of 8 available processors)

Solution count 0

Model is infeasible
Best objective -, best bound -, gap -

Gurobi 11.0.1 (win64) logging started Thu Apr 25 22:25:33 2024

Set parameter LogFile to value "gurobi.log"
Set parameter MIPGap to value 0.01
Set parameter TimeLimit to value 1200
Set parameter MIPFocus to value 1
Set parameter IntFeasTol to value 1e-06
Gurobi Optimizer version 11.0.1 build v11.0.1rc0 (win64 - Windows 11.0 (22631.2))

CPU model: Intel(R) Core(TM) i5-10300H CPU @ 2.50GHz, instruction set [SSE2|AVX|AVX2]
Thread count: 4 physical cores, 8 logical processors, using up to 8 threads

Optimize a model with 320 rows, 171 columns and 252 nonzeros
Model fingerprint: 0x9f1ab5d5
Model has 112 general constraints
Variable types: 17 continuous, 154 integer (98 binary)
Coefficient statistics:
  Matrix range     [1e+00, 2e+02]
  Objective range  [1e+00, 1e+00]
  Bounds range     [1e+00, 1e+00]
  RHS range        [1e+00, 4e+02]
Presolve time: 0.00s

Explored 0 nodes (0 simplex iterations) in 0.00 seconds (0.00 work units)
Thread count was 1 (of 8 available processors)

Solution count 0

Model is infeasible
Best objective -, best bound -, gap -

Gurobi 11.0.1 (win64) logging started Thu Apr 25 22:25:36 2024

Set parameter LogFile to value "gurobi.log"
Set parameter MIPGap to value 0.01
Set parameter TimeLimit to value 1200
Set parameter MIPFocus to value 1
Set parameter IntFeasTol to value 1e-06
Gurobi Optimizer version 11.0.1 build v11.0.1rc0 (win64 - Windows 11.0 (22631.2))

CPU model: Intel(R) Core(TM) i5-10300H CPU @ 2.50GHz, instruction set [SSE2|AVX|AVX2]
Thread count: 4 physical cores, 8 logical processors, using up to 8 threads

Optimize a model with 320 rows, 171 columns and 252 nonzeros
Model fingerprint: 0x11db58b2
Model has 112 general constraints
Variable types: 17 continuous, 154 integer (98 binary)
Coefficient statistics:
  Matrix range     [1e+00, 2e+02]
  Objective range  [1e+00, 1e+00]
  Bounds range     [1e+00, 1e+00]
  RHS range        [1e+00, 4e+02]
Presolve time: 0.00s

Explored 0 nodes (0 simplex iterations) in 0.00 seconds (0.00 work units)
Thread count was 1 (of 8 available processors)

Solution count 0

Model is infeasible
Best objective -, best bound -, gap -

Gurobi 11.0.1 (win64) logging started Thu Apr 25 22:25:52 2024

Set parameter LogFile to value "gurobi.log"
Set parameter MIPGap to value 0.01
Set parameter TimeLimit to value 1200
Set parameter MIPFocus to value 1
Set parameter IntFeasTol to value 1e-06
Gurobi Optimizer version 11.0.1 build v11.0.1rc0 (win64 - Windows 11.0 (22631.2))

CPU model: Intel(R) Core(TM) i5-10300H CPU @ 2.50GHz, instruction set [SSE2|AVX|AVX2]
Thread count: 4 physical cores, 8 logical processors, using up to 8 threads

Optimize a model with 60 rows, 107 columns and 216 nonzeros
Model fingerprint: 0xb8a621cf
Variable types: 17 continuous, 90 integer (34 binary)
Coefficient statistics:
  Matrix range     [1e+00, 2e+02]
  Objective range  [1e+00, 1e+00]
  Bounds range     [1e+00, 1e+00]
  RHS range        [1e+00, 3e+02]
Presolve removed 44 rows and 75 columns
Presolve time: 0.03s
Presolved: 16 rows, 32 columns, 96 nonzeros
Variable types: 0 continuous, 32 integer (32 binary)
Found heuristic solution: objective 302.0000000

Explored 0 nodes (0 simplex iterations) in 0.05 seconds (0.00 work units)
Thread count was 8 (of 8 available processors)

Solution count 1: 302 

Optimal solution found (tolerance 1.00e-02)
Best objective 3.020000000000e+02, best bound 3.020000000000e+02, gap 0.0000%

Gurobi 11.0.1 (win64) logging started Thu Apr 25 22:25:54 2024

Set parameter LogFile to value "gurobi.log"
Set parameter MIPGap to value 0.01
Set parameter TimeLimit to value 1200
Set parameter MIPFocus to value 1
Set parameter IntFeasTol to value 1e-06
Gurobi Optimizer version 11.0.1 build v11.0.1rc0 (win64 - Windows 11.0 (22631.2))

CPU model: Intel(R) Core(TM) i5-10300H CPU @ 2.50GHz, instruction set [SSE2|AVX|AVX2]
Thread count: 4 physical cores, 8 logical processors, using up to 8 threads

Optimize a model with 60 rows, 107 columns and 216 nonzeros
Model fingerprint: 0x7631af9b
Variable types: 17 continuous, 90 integer (34 binary)
Coefficient statistics:
  Matrix range     [1e+00, 2e+02]
  Objective range  [1e+00, 1e+00]
  Bounds range     [1e+00, 1e+00]
  RHS range        [1e+00, 4e+02]
Presolve removed 44 rows and 75 columns
Presolve time: 0.00s
Presolved: 16 rows, 32 columns, 96 nonzeros
Variable types: 0 continuous, 32 integer (32 binary)

Root relaxation: objective 1.890000e+02, 21 iterations, 0.01 seconds (0.00 work units)

    Nodes    |    Current Node    |     Objective Bounds      |     Work
 Expl Unexpl |  Obj  Depth IntInf | Incumbent    BestBd   Gap | It/Node Time

H    0     0                     189.0000000  189.00000  0.00%     -    0s
     0     0  189.00000    0    8  189.00000  189.00000  0.00%     -    0s

Explored 1 nodes (21 simplex iterations) in 0.01 seconds (0.00 work units)
Thread count was 8 (of 8 available processors)

Solution count 1: 189 

Optimal solution found (tolerance 1.00e-02)
Best objective 1.890000000000e+02, best bound 1.890000000000e+02, gap 0.0000%

Gurobi 11.0.1 (win64) logging started Thu Apr 25 22:25:56 2024

Set parameter LogFile to value "gurobi.log"
Set parameter MIPGap to value 0.01
Set parameter TimeLimit to value 1200
Set parameter MIPFocus to value 1
Set parameter IntFeasTol to value 1e-06
Gurobi Optimizer version 11.0.1 build v11.0.1rc0 (win64 - Windows 11.0 (22631.2))

CPU model: Intel(R) Core(TM) i5-10300H CPU @ 2.50GHz, instruction set [SSE2|AVX|AVX2]
Thread count: 4 physical cores, 8 logical processors, using up to 8 threads

Optimize a model with 60 rows, 107 columns and 216 nonzeros
Model fingerprint: 0xcfde2ad9
Variable types: 17 continuous, 90 integer (34 binary)
Coefficient statistics:
  Matrix range     [1e+00, 2e+02]
  Objective range  [1e+00, 1e+00]
  Bounds range     [1e+00, 1e+00]
  RHS range        [1e+00, 4e+02]
Presolve removed 44 rows and 75 columns
Presolve time: 0.00s
Presolved: 16 rows, 32 columns, 96 nonzeros
Variable types: 0 continuous, 32 integer (32 binary)
Found heuristic solution: objective 226.0000000

Explored 0 nodes (0 simplex iterations) in 0.00 seconds (0.00 work units)
Thread count was 8 (of 8 available processors)

Solution count 1: 226 

Optimal solution found (tolerance 1.00e-02)
Best objective 2.260000000000e+02, best bound 2.260000000000e+02, gap 0.0000%

Gurobi 11.0.1 (win64) logging started Thu Apr 25 22:26:13 2024

Set parameter LogFile to value "gurobi.log"
Set parameter MIPGap to value 0.01
Set parameter TimeLimit to value 1200
Set parameter MIPFocus to value 1
Set parameter IntFeasTol to value 1e-06
Gurobi Optimizer version 11.0.1 build v11.0.1rc0 (win64 - Windows 11.0 (22631.2))

CPU model: Intel(R) Core(TM) i5-10300H CPU @ 2.50GHz, instruction set [SSE2|AVX|AVX2]
Thread count: 4 physical cores, 8 logical processors, using up to 8 threads

Optimize a model with 320 rows, 171 columns and 252 nonzeros
Model fingerprint: 0x26530263
Model has 112 general constraints
Variable types: 17 continuous, 154 integer (98 binary)
Coefficient statistics:
  Matrix range     [1e+00, 2e+02]
  Objective range  [1e+00, 1e+00]
  Bounds range     [1e+00, 1e+00]
  RHS range        [1e+00, 4e+02]
Presolve time: 0.00s

Explored 0 nodes (0 simplex iterations) in 0.00 seconds (0.00 work units)
Thread count was 1 (of 8 available processors)

Solution count 0

Model is infeasible
Best objective -, best bound -, gap -

Gurobi 11.0.1 (win64) logging started Thu Apr 25 22:26:21 2024

Set parameter LogFile to value "gurobi.log"
Set parameter MIPGap to value 0.01
Set parameter TimeLimit to value 1200
Set parameter MIPFocus to value 1
Set parameter IntFeasTol to value 1e-06
Gurobi Optimizer version 11.0.1 build v11.0.1rc0 (win64 - Windows 11.0 (22631.2))

CPU model: Intel(R) Core(TM) i5-10300H CPU @ 2.50GHz, instruction set [SSE2|AVX|AVX2]
Thread count: 4 physical cores, 8 logical processors, using up to 8 threads

Optimize a model with 60 rows, 107 columns and 216 nonzeros
Model fingerprint: 0x5df79fed
Variable types: 17 continuous, 90 integer (34 binary)
Coefficient statistics:
  Matrix range     [1e+00, 2e+02]
  Objective range  [1e+00, 1e+00]
  Bounds range     [1e+00, 1e+00]
  RHS range        [1e+00, 4e+02]
Presolve removed 44 rows and 75 columns
Presolve time: 0.00s
Presolved: 16 rows, 32 columns, 96 nonzeros
Variable types: 0 continuous, 32 integer (32 binary)
Found heuristic solution: objective 210.0000000

Explored 0 nodes (0 simplex iterations) in 0.00 seconds (0.00 work units)
Thread count was 8 (of 8 available processors)

Solution count 1: 210 

Optimal solution found (tolerance 1.00e-02)
Best objective 2.100000000000e+02, best bound 2.100000000000e+02, gap 0.0000%

Gurobi 11.0.1 (win64) logging started Thu Apr 25 22:26:25 2024

Set parameter LogFile to value "gurobi.log"
Set parameter MIPGap to value 0.01
Set parameter TimeLimit to value 1200
Set parameter MIPFocus to value 1
Set parameter IntFeasTol to value 1e-06
Gurobi Optimizer version 11.0.1 build v11.0.1rc0 (win64 - Windows 11.0 (22631.2))

CPU model: Intel(R) Core(TM) i5-10300H CPU @ 2.50GHz, instruction set [SSE2|AVX|AVX2]
Thread count: 4 physical cores, 8 logical processors, using up to 8 threads

Optimize a model with 60 rows, 107 columns and 216 nonzeros
Model fingerprint: 0xdb0ce811
Variable types: 17 continuous, 90 integer (34 binary)
Coefficient statistics:
  Matrix range     [1e+00, 2e+02]
  Objective range  [1e+00, 1e+00]
  Bounds range     [1e+00, 1e+00]
  RHS range        [1e+00, 4e+02]
Presolve removed 44 rows and 75 columns
Presolve time: 0.00s
Presolved: 16 rows, 32 columns, 96 nonzeros
Variable types: 0 continuous, 32 integer (32 binary)
Found heuristic solution: objective 225.0000000

Explored 0 nodes (0 simplex iterations) in 0.00 seconds (0.00 work units)
Thread count was 8 (of 8 available processors)

Solution count 1: 225 

Optimal solution found (tolerance 1.00e-02)
Best objective 2.250000000000e+02, best bound 2.250000000000e+02, gap 0.0000%
